p cnf 441 1
441 0
w 1 0.533832
w 2 1 1
w 2 -1 0
w 3 2 0
w 3 -2 1
w 4 3 0.988403
w 4 -3 0.0723107
w 5 4 0.978667
w 5 -4 0.361215
w 6 5 1
w 6 -5 0
w 7 6 0.660726
w 7 -6 0.382546
w 8 7 1
w 8 -7 0
w 9 8 0.326346
w 9 -8 0.639023
w 10 9 0
w 10 -9 1
w 11 10 0
w 11 -10 1
w 12 11 0
w 12 -11 1
w 13 12 0
w 13 -12 1
w 14 13 1
w 14 -13 0
w 15 14 1
w 15 -14 0
w 16 15 1
w 16 -15 0
w 17 16 0
w 17 -16 1
w 18 17 0
w 18 -17 1
w 19 18 0.0308088
w 19 -18 0.582293
w 20 19 0.849403
w 20 -19 0.532002
w 21 20 1
w 21 -20 0
w 22 1 0.969967
w 22 -1 0.0530184
w 23 22 2 0
w 23 22 -2 1
w 23 -22 2 1
w 23 -22 -2 0
w 24 23 3 0
w 24 23 -3 1
w 24 -23 3 0
w 24 -23 -3 0
w 25 24 4 1
w 25 24 -4 0
w 25 -24 4 1
w 25 -24 -4 0
w 26 25 5 0.636981
w 26 25 -5 0.107061
w 26 -25 5 0.891109
w 26 -25 -5 0.858059
w 27 26 6 0
w 27 26 -6 0
w 27 -26 6 1
w 27 -26 -6 0
w 28 27 7 0.613355
w 28 27 -7 0.00327001
w 28 -27 7 0.839835
w 28 -27 -7 0.583322
w 29 28 8 1
w 29 28 -8 0
w 29 -28 8 0
w 29 -28 -8 0
w 30 29 9 0
w 30 29 -9 1
w 30 -29 9 1
w 30 -29 -9 1
w 31 30 10 1
w 31 30 -10 1
w 31 -30 10 0
w 31 -30 -10 1
w 32 31 11 1
w 32 31 -11 1
w 32 -31 11 1
w 32 -31 -11 0
w 33 32 12 1
w 33 32 -12 1
w 33 -32 12 0
w 33 -32 -12 0
w 34 33 13 0
w 34 33 -13 1
w 34 -33 13 0
w 34 -33 -13 1
w 35 34 14 0
w 35 34 -14 1
w 35 -34 14 0
w 35 -34 -14 0
w 36 35 15 0
w 36 35 -15 1
w 36 -35 15 1
w 36 -35 -15 0
w 37 36 16 0
w 37 36 -16 1
w 37 -36 16 1
w 37 -36 -16 0
w 38 37 17 0.377058
w 38 37 -17 0.243346
w 38 -37 17 0.245903
w 38 -37 -17 0.460552
w 39 38 18 1
w 39 38 -18 0
w 39 -38 18 0
w 39 -38 -18 0
w 40 39 19 1
w 40 39 -19 0
w 40 -39 19 0
w 40 -39 -19 1
w 41 40 20 0.519677
w 41 40 -20 0.683563
w 41 -40 20 0.780528
w 41 -40 -20 0.473924
w 42 41 21 1
w 42 41 -21 0
w 42 -41 21 1
w 42 -41 -21 1
w 43 22 0
w 43 -22 1
w 44 43 23 1
w 44 43 -23 0
w 44 -43 23 0
w 44 -43 -23 0
w 45 44 24 0
w 45 44 -24 0
w 45 -44 24 1
w 45 -44 -24 0
w 46 45 25 0
w 46 45 -25 1
w 46 -45 25 1
w 46 -45 -25 0
w 47 46 26 1
w 47 46 -26 1
w 47 -46 26 0
w 47 -46 -26 1
w 48 47 27 1
w 48 47 -27 1
w 48 -47 27 1
w 48 -47 -27 0
w 49 48 28 0
w 49 48 -28 1
w 49 -48 28 0
w 49 -48 -28 0
w 50 49 29 1
w 50 49 -29 0
w 50 -49 29 1
w 50 -49 -29 1
w 51 50 30 0.453093
w 51 50 -30 0.999036
w 51 -50 30 0.845681
w 51 -50 -30 0.399883
w 52 51 31 1
w 52 51 -31 1
w 52 -51 31 0
w 52 -51 -31 1
w 53 52 32 0
w 53 52 -32 0
w 53 -52 32 1
w 53 -52 -32 1
w 54 53 33 1
w 54 53 -33 0
w 54 -53 33 0
w 54 -53 -33 0
w 55 54 34 1
w 55 54 -34 0
w 55 -54 34 1
w 55 -54 -34 0
w 56 55 35 0
w 56 55 -35 0
w 56 -55 35 1
w 56 -55 -35 0
w 57 56 36 1
w 57 56 -36 0
w 57 -56 36 0
w 57 -56 -36 1
w 58 57 37 1
w 58 57 -37 1
w 58 -57 37 1
w 58 -57 -37 0
w 59 58 38 1
w 59 58 -38 1
w 59 -58 38 0
w 59 -58 -38 1
w 60 59 39 1
w 60 59 -39 1
w 60 -59 39 0
w 60 -59 -39 1
w 61 60 40 1
w 61 60 -40 1
w 61 -60 40 0
w 61 -60 -40 1
w 62 61 41 0
w 62 61 -41 1
w 62 -61 41 0
w 62 -61 -41 0
w 63 62 42 1
w 63 62 -42 0
w 63 -62 42 1
w 63 -62 -42 0
w 64 43 0
w 64 -43 1
w 65 64 44 1
w 65 64 -44 0
w 65 -64 44 0
w 65 -64 -44 0
w 66 65 45 0.985127
w 66 65 -45 0.45422
w 66 -65 45 0.383053
w 66 -65 -45 0.196608
w 67 66 46 0
w 67 66 -46 1
w 67 -66 46 0
w 67 -66 -46 1
w 68 67 47 1
w 68 67 -47 0
w 68 -67 47 1
w 68 -67 -47 1
w 69 68 48 1
w 69 68 -48 0
w 69 -68 48 1
w 69 -68 -48 1
w 70 69 49 0
w 70 69 -49 0
w 70 -69 49 1
w 70 -69 -49 1
w 71 70 50 0
w 71 70 -50 1
w 71 -70 50 0
w 71 -70 -50 0
w 72 71 51 0.179503
w 72 71 -51 0.215373
w 72 -71 51 0.342485
w 72 -71 -51 0.562556
w 73 72 52 1
w 73 72 -52 0
w 73 -72 52 0
w 73 -72 -52 0
w 74 73 53 1
w 74 73 -53 1
w 74 -73 53 0
w 74 -73 -53 0
w 75 74 54 0.870696
w 75 74 -54 0.150492
w 75 -74 54 0.198037
w 75 -74 -54 0.830761
w 76 75 55 1
w 76 75 -55 0
w 76 -75 55 0
w 76 -75 -55 1
w 77 76 56 0
w 77 76 -56 1
w 77 -76 56 0
w 77 -76 -56 1
w 78 77 57 0
w 78 77 -57 0
w 78 -77 57 1
w 78 -77 -57 1
w 79 78 58 0.239309
w 79 78 -58 0.538083
w 79 -78 58 0.312683
w 79 -78 -58 0.211294
w 80 79 59 0
w 80 79 -59 0
w 80 -79 59 1
w 80 -79 -59 0
w 81 80 60 0
w 81 80 -60 0
w 81 -80 60 1
w 81 -80 -60 0
w 82 81 61 1
w 82 81 -61 0
w 82 -81 61 0
w 82 -81 -61 1
w 83 82 62 0.424117
w 83 82 -62 0.298821
w 83 -82 62 0.339999
w 83 -82 -62 0.74233
w 84 83 63 0
w 84 83 -63 0
w 84 -83 63 1
w 84 -83 -63 1
w 85 64 0
w 85 -64 1
w 86 85 65 1
w 86 85 -65 0
w 86 -85 65 0
w 86 -85 -65 0
w 87 86 66 0.928431
w 87 86 -66 0.0665116
w 87 -86 66 0.35428
w 87 -86 -66 0.12672
w 88 87 67 1
w 88 87 -67 0
w 88 -87 67 1
w 88 -87 -67 0
w 89 88 68 0
w 89 88 -68 0
w 89 -88 68 1
w 89 -88 -68 0
w 90 89 69 0
w 90 89 -69 0
w 90 -89 69 1
w 90 -89 -69 0
w 91 90 70 0.181051
w 91 90 -70 0.698803
w 91 -90 70 0.296004
w 91 -90 -70 0.519217
w 92 91 71 0
w 92 91 -71 1
w 92 -91 71 1
w 92 -91 -71 1
w 93 92 72 0.707933
w 93 92 -72 0.97361
w 93 -92 72 0.83561
w 93 -92 -72 0.0622123
w 94 93 73 1
w 94 93 -73 1
w 94 -93 73 1
w 94 -93 -73 0
w 95 94 74 0
w 95 94 -74 0
w 95 -94 74 1
w 95 -94 -74 1
w 96 95 75 1
w 96 95 -75 1
w 96 -95 75 1
w 96 -95 -75 0
w 97 96 76 0.251656
w 97 96 -76 0.611523
w 97 -96 76 0.506106
w 97 -96 -76 0.547659
w 98 97 77 1
w 98 97 -77 1
w 98 -97 77 0
w 98 -97 -77 0
w 99 98 78 0.0699037
w 99 98 -78 0.878717
w 99 -98 78 0.898304
w 99 -98 -78 0.905514
w 100 99 79 0.998634
w 100 99 -79 0.145811
w 100 -99 79 0.101541
w 100 -99 -79 0.622011
w 101 100 80 0.634378
w 101 100 -80 0.914663
w 101 -100 80 0.456629
w 101 -100 -80 0.154519
w 102 101 81 0.0606252
w 102 101 -81 0.960784
w 102 -101 81 0.722663
w 102 -101 -81 0.514047
w 103 102 82 0
w 103 102 -82 1
w 103 -102 82 0
w 103 -102 -82 0
w 104 103 83 1
w 104 103 -83 1
w 104 -103 83 1
w 104 -103 -83 0
w 105 104 84 1
w 105 104 -84 0
w 105 -104 84 1
w 105 -104 -84 0
w 106 85 0
w 106 -85 1
w 107 106 86 1
w 107 106 -86 0
w 107 -106 86 1
w 107 -106 -86 0
w 108 107 87 0.551184
w 108 107 -87 0.971911
w 108 -107 87 0.140441
w 108 -107 -87 0.386064
w 109 108 88 1
w 109 108 -88 0
w 109 -108 88 0
w 109 -108 -88 0
w 110 109 89 0
w 110 109 -89 0
w 110 -109 89 1
w 110 -109 -89 0
w 111 110 90 0
w 111 110 -90 1
w 111 -110 90 1
w 111 -110 -90 1
w 112 111 91 0
w 112 111 -91 0
w 112 -111 91 1
w 112 -111 -91 0
w 113 112 92 0.532616
w 113 112 -92 0.275313
w 113 -112 92 0.603004
w 113 -112 -92 0.0478975
w 114 113 93 0
w 114 113 -93 1
w 114 -113 93 0
w 114 -113 -93 0
w 115 114 94 1
w 115 114 -94 1
w 115 -114 94 0
w 115 -114 -94 1
w 116 115 95 0.490637
w 116 115 -95 0.962437
w 116 -115 95 0.536863
w 116 -115 -95 0.119413
w 117 116 96 0.355388
w 117 116 -96 0.182511
w 117 -116 96 0.261468
w 117 -116 -96 0.291485
w 118 117 97 1
w 118 117 -97 0
w 118 -117 97 1
w 118 -117 -97 1
w 119 118 98 1
w 119 118 -98 1
w 119 -118 98 1
w 119 -118 -98 0
w 120 119 99 0
w 120 119 -99 0
w 120 -119 99 1
w 120 -119 -99 0
w 121 120 100 0
w 121 120 -100 1
w 121 -120 100 1
w 121 -120 -100 1
w 122 121 101 0
w 122 121 -101 0
w 122 -121 101 1
w 122 -121 -101 1
w 123 122 102 0.303247
w 123 122 -102 0.78196
w 123 -122 102 0.0880664
w 123 -122 -102 0.564715
w 124 123 103 0
w 124 123 -103 0
w 124 -123 103 1
w 124 -123 -103 1
w 125 124 104 1
w 125 124 -104 0
w 125 -124 104 1
w 125 -124 -104 1
w 126 125 105 0
w 126 125 -105 1
w 126 -125 105 1
w 126 -125 -105 1
w 127 106 0.838518
w 127 -106 0.986176
w 128 127 107 0.817012
w 128 127 -107 0.281682
w 128 -127 107 0.414709
w 128 -127 -107 0.706722
w 129 128 108 1
w 129 128 -108 1
w 129 -128 108 0
w 129 -128 -108 1
w 130 129 109 0
w 130 129 -109 0
w 130 -129 109 1
w 130 -129 -109 0
w 131 130 110 0
w 131 130 -110 0
w 131 -130 110 1
w 131 -130 -110 1
w 132 131 111 0
w 132 131 -111 0
w 132 -131 111 0
w 132 -131 -111 1
w 133 132 112 0.616196
w 133 132 -112 0.29347
w 133 -132 112 0.717666
w 133 -132 -112 0.602373
w 134 133 113 1
w 134 133 -113 0
w 134 -133 113 0
w 134 -133 -113 1
w 135 134 114 0.500033
w 135 134 -114 0.374694
w 135 -134 114 0.925262
w 135 -134 -114 0.624463
w 136 135 115 1
w 136 135 -115 0
w 136 -135 115 0
w 136 -135 -115 0
w 137 136 116 0
w 137 136 -116 1
w 137 -136 116 1
w 137 -136 -116 1
w 138 137 117 1
w 138 137 -117 1
w 138 -137 117 0
w 138 -137 -117 0
w 139 138 118 1
w 139 138 -118 0
w 139 -138 118 0
w 139 -138 -118 1
w 140 139 119 0
w 140 139 -119 1
w 140 -139 119 1
w 140 -139 -119 0
w 141 140 120 0
w 141 140 -120 1
w 141 -140 120 0
w 141 -140 -120 1
w 142 141 121 0
w 142 141 -121 0
w 142 -141 121 0
w 142 -141 -121 1
w 143 142 122 0.24537
w 143 142 -122 0.959305
w 143 -142 122 0.224964
w 143 -142 -122 0.296123
w 144 143 123 0
w 144 143 -123 0
w 144 -143 123 1
w 144 -143 -123 0
w 145 144 124 1
w 145 144 -124 1
w 145 -144 124 0
w 145 -144 -124 1
w 146 145 125 0
w 146 145 -125 1
w 146 -145 125 1
w 146 -145 -125 1
w 147 146 126 1
w 147 146 -126 1
w 147 -146 126 1
w 147 -146 -126 0
w 148 127 0
w 148 -127 1
w 149 148 128 1
w 149 148 -128 1
w 149 -148 128 0
w 149 -148 -128 1
w 150 149 129 1
w 150 149 -129 0
w 150 -149 129 0
w 150 -149 -129 0
w 151 150 130 0
w 151 150 -130 1
w 151 -150 130 0
w 151 -150 -130 1
w 152 151 131 1
w 152 151 -131 0
w 152 -151 131 1
w 152 -151 -131 1
w 153 152 132 1
w 153 152 -132 0
w 153 -152 132 1
w 153 -152 -132 0
w 154 153 133 0
w 154 153 -133 1
w 154 -153 133 0
w 154 -153 -133 0
w 155 154 134 0.478619
w 155 154 -134 0.991711
w 155 -154 134 0.217169
w 155 -154 -134 0.0251998
w 156 155 135 0
w 156 155 -135 1
w 156 -155 135 1
w 156 -155 -135 0
w 157 156 136 0
w 157 156 -136 1
w 157 -156 136 0
w 157 -156 -136 0
w 158 157 137 0.430286
w 158 157 -137 0.729097
w 158 -157 137 0.584564
w 158 -157 -137 0.410074
w 159 158 138 0.0356504
w 159 158 -138 0.804334
w 159 -158 138 0.382972
w 159 -158 -138 0.625083
w 160 159 139 1
w 160 159 -139 1
w 160 -159 139 0
w 160 -159 -139 1
w 161 160 140 1
w 161 160 -140 1
w 161 -160 140 0
w 161 -160 -140 1
w 162 161 141 1
w 162 161 -141 1
w 162 -161 141 0
w 162 -161 -141 1
w 163 162 142 1
w 163 162 -142 0
w 163 -162 142 1
w 163 -162 -142 1
w 164 163 143 0
w 164 163 -143 1
w 164 -163 143 1
w 164 -163 -143 1
w 165 164 144 1
w 165 164 -144 0
w 165 -164 144 0
w 165 -164 -144 0
w 166 165 145 0
w 166 165 -145 1
w 166 -165 145 0
w 166 -165 -145 0
w 167 166 146 0
w 167 166 -146 1
w 167 -166 146 1
w 167 -166 -146 0
w 168 167 147 0
w 168 167 -147 0
w 168 -167 147 1
w 168 -167 -147 0
w 169 148 0
w 169 -148 1
w 170 169 149 0.751222
w 170 169 -149 0.493885
w 170 -169 149 0.443229
w 170 -169 -149 0.571409
w 171 170 150 0.66855
w 171 170 -150 0.801669
w 171 -170 150 0.111491
w 171 -170 -150 0.929521
w 172 171 151 0.750061
w 172 171 -151 0.815576
w 172 -171 151 0.560651
w 172 -171 -151 0.390468
w 173 172 152 0.353478
w 173 172 -152 0.210121
w 173 -172 152 0.641092
w 173 -172 -152 0.0752751
w 174 173 153 0
w 174 173 -153 0
w 174 -173 153 1
w 174 -173 -153 1
w 175 174 154 0.559769
w 175 174 -154 0.561084
w 175 -174 154 0.75783
w 175 -174 -154 0.921091
w 176 175 155 1
w 176 175 -155 1
w 176 -175 155 1
w 176 -175 -155 0
w 177 176 156 0
w 177 176 -156 1
w 177 -176 156 0
w 177 -176 -156 0
w 178 177 157 0
w 178 177 -157 1
w 178 -177 157 1
w 178 -177 -157 1
w 179 178 158 0
w 179 178 -158 1
w 179 -178 158 1
w 179 -178 -158 1
w 180 179 159 0.921615
w 180 179 -159 0.0669327
w 180 -179 159 0.81427
w 180 -179 -159 0.769835
w 181 180 160 0.570327
w 181 180 -160 0.329604
w 181 -180 160 0.376108
w 181 -180 -160 0.328157
w 182 181 161 1
w 182 181 -161 0
w 182 -181 161 0
w 182 -181 -161 0
w 183 182 162 0
w 183 182 -162 0
w 183 -182 162 1
w 183 -182 -162 0
w 184 183 163 0
w 184 183 -163 0
w 184 -183 163 1
w 184 -183 -163 1
w 185 184 164 1
w 185 184 -164 1
w 185 -184 164 1
w 185 -184 -164 0
w 186 185 165 1
w 186 185 -165 1
w 186 -185 165 1
w 186 -185 -165 0
w 187 186 166 1
w 187 186 -166 1
w 187 -186 166 0
w 187 -186 -166 0
w 188 187 167 1
w 188 187 -167 0
w 188 -187 167 1
w 188 -187 -167 1
w 189 188 168 1
w 189 188 -168 1
w 189 -188 168 1
w 189 -188 -168 0
w 190 169 1
w 190 -169 0
w 191 190 170 0.408419
w 191 190 -170 0.00874135
w 191 -190 170 0.463959
w 191 -190 -170 0.434934
w 192 191 171 0.795827
w 192 191 -171 0.695426
w 192 -191 171 0.649932
w 192 -191 -171 0.998755
w 193 192 172 0.497071
w 193 192 -172 0.0159538
w 193 -192 172 0.829475
w 193 -192 -172 0.159233
w 194 193 173 0
w 194 193 -173 1
w 194 -193 173 1
w 194 -193 -173 1
w 195 194 174 1
w 195 194 -174 0
w 195 -194 174 1
w 195 -194 -174 0
w 196 195 175 0
w 196 195 -175 1
w 196 -195 175 0
w 196 -195 -175 0
w 197 196 176 1
w 197 196 -176 0
w 197 -196 176 0
w 197 -196 -176 0
w 198 197 177 1
w 198 197 -177 1
w 198 -197 177 0
w 198 -197 -177 1
w 199 198 178 1
w 199 198 -178 0
w 199 -198 178 0
w 199 -198 -178 1
w 200 199 179 0
w 200 199 -179 0
w 200 -199 179 0
w 200 -199 -179 1
w 201 200 180 1
w 201 200 -180 1
w 201 -200 180 1
w 201 -200 -180 0
w 202 201 181 0.327139
w 202 201 -181 0.501984
w 202 -201 181 0.400387
w 202 -201 -181 0.353874
w 203 202 182 1
w 203 202 -182 1
w 203 -202 182 0
w 203 -202 -182 0
w 204 203 183 0
w 204 203 -183 1
w 204 -203 183 1
w 204 -203 -183 0
w 205 204 184 0
w 205 204 -184 1
w 205 -204 184 1
w 205 -204 -184 0
w 206 205 185 0
w 206 205 -185 0
w 206 -205 185 1
w 206 -205 -185 0
w 207 206 186 0
w 207 206 -186 0
w 207 -206 186 1
w 207 -206 -186 1
w 208 207 187 0
w 208 207 -187 1
w 208 -207 187 1
w 208 -207 -187 1
w 209 208 188 0.444251
w 209 208 -188 0.604911
w 209 -208 188 0.746573
w 209 -208 -188 0.366037
w 210 209 189 0
w 210 209 -189 0
w 210 -209 189 0
w 210 -209 -189 1
w 211 190 1
w 211 -190 0
w 212 211 191 0
w 212 211 -191 0
w 212 -211 191 0
w 212 -211 -191 1
w 213 212 192 0.561967
w 213 212 -192 0.891887
w 213 -212 192 0.12713
w 213 -212 -192 0.912525
w 214 213 193 1
w 214 213 -193 1
w 214 -213 193 0
w 214 -213 -193 1
w 215 214 194 1
w 215 214 -194 1
w 215 -214 194 0
w 215 -214 -194 1
w 216 215 195 1
w 216 215 -195 0
w 216 -215 195 0
w 216 -215 -195 1
w 217 216 196 0
w 217 216 -196 1
w 217 -216 196 0
w 217 -216 -196 1
w 218 217 197 0.380595
w 218 217 -197 0.986926
w 218 -217 197 0.182847
w 218 -217 -197 0.61881
w 219 218 198 0
w 219 218 -198 0
w 219 -218 198 0
w 219 -218 -198 1
w 220 219 199 1
w 220 219 -199 1
w 220 -219 199 0
w 220 -219 -199 1
w 221 220 200 1
w 221 220 -200 0
w 221 -220 200 1
w 221 -220 -200 0
w 222 221 201 0
w 222 221 -201 1
w 222 -221 201 0
w 222 -221 -201 0
w 223 222 202 1
w 223 222 -202 1
w 223 -222 202 0
w 223 -222 -202 0
w 224 223 203 0
w 224 223 -203 0
w 224 -223 203 1
w 224 -223 -203 1
w 225 224 204 1
w 225 224 -204 1
w 225 -224 204 1
w 225 -224 -204 0
w 226 225 205 0
w 226 225 -205 0
w 226 -225 205 0
w 226 -225 -205 1
w 227 226 206 1
w 227 226 -206 0
w 227 -226 206 0
w 227 -226 -206 1
w 228 227 207 0
w 228 227 -207 1
w 228 -227 207 0
w 228 -227 -207 0
w 229 228 208 1
w 229 228 -208 1
w 229 -228 208 0
w 229 -228 -208 1
w 230 229 209 0
w 230 229 -209 0
w 230 -229 209 1
w 230 -229 -209 0
w 231 230 210 0
w 231 230 -210 1
w 231 -230 210 1
w 231 -230 -210 1
w 232 211 0.736191
w 232 -211 0.496374
w 233 232 212 1
w 233 232 -212 0
w 233 -232 212 1
w 233 -232 -212 1
w 234 233 213 0
w 234 233 -213 1
w 234 -233 213 0
w 234 -233 -213 1
w 235 234 214 0.0933481
w 235 234 -214 0.552237
w 235 -234 214 0.149552
w 235 -234 -214 0.0286354
w 236 235 215 1
w 236 235 -215 1
w 236 -235 215 0
w 236 -235 -215 0
w 237 236 216 1
w 237 236 -216 0
w 237 -236 216 1
w 237 -236 -216 0
w 238 237 217 0
w 238 237 -217 1
w 238 -237 217 1
w 238 -237 -217 0
w 239 238 218 0.86199
w 239 238 -218 0.518465
w 239 -238 218 0.0373377
w 239 -238 -218 0.00683415
w 240 239 219 1
w 240 239 -219 0
w 240 -239 219 1
w 240 -239 -219 1
w 241 240 220 0.888141
w 241 240 -220 0.307295
w 241 -240 220 0.463021
w 241 -240 -220 0.0376932
w 242 241 221 0
w 242 241 -221 1
w 242 -241 221 1
w 242 -241 -221 0
w 243 242 222 0.893618
w 243 242 -222 0.239623
w 243 -242 222 0.380673
w 243 -242 -222 0.680462
w 244 243 223 1
w 244 243 -223 1
w 244 -243 223 1
w 244 -243 -223 0
w 245 244 224 0
w 245 244 -224 0
w 245 -244 224 0
w 245 -244 -224 1
w 246 245 225 0
w 246 245 -225 0
w 246 -245 225 0
w 246 -245 -225 1
w 247 246 226 0.502859
w 247 246 -226 0.154841
w 247 -246 226 0.07672
w 247 -246 -226 0.965881
w 248 247 227 0
w 248 247 -227 0
w 248 -247 227 1
w 248 -247 -227 1
w 249 248 228 0.354409
w 249 248 -228 0.0330292
w 249 -248 228 0.0725326
w 249 -248 -228 0.735083
w 250 249 229 0
w 250 249 -229 1
w 250 -249 229 0
w 250 -249 -229 0
w 251 250 230 0.529009
w 251 250 -230 0.770672
w 251 -250 230 0.947472
w 251 -250 -230 0.609727
w 252 251 231 0.0700992
w 252 251 -231 0.757168
w 252 -251 231 0.347971
w 252 -251 -231 0.662174
w 253 232 0
w 253 -232 1
w 254 253 233 1
w 254 253 -233 1
w 254 -253 233 0
w 254 -253 -233 1
w 255 254 234 0
w 255 254 -234 0
w 255 -254 234 1
w 255 -254 -234 1
w 256 255 235 1
w 256 255 -235 1
w 256 -255 235 0
w 256 -255 -235 0
w 257 256 236 1
w 257 256 -236 0
w 257 -256 236 0
w 257 -256 -236 0
w 258 257 237 0.0132946
w 258 257 -237 0.325123
w 258 -257 237 0.598189
w 258 -257 -237 0.805788
w 259 258 238 1
w 259 258 -238 1
w 259 -258 238 1
w 259 -258 -238 0
w 260 259 239 1
w 260 259 -239 0
w 260 -259 239 0
w 260 -259 -239 0
w 261 260 240 0
w 261 260 -240 0
w 261 -260 240 0
w 261 -260 -240 1
w 262 261 241 0
w 262 261 -241 1
w 262 -261 241 1
w 262 -261 -241 0
w 263 262 242 0
w 263 262 -242 1
w 263 -262 242 1
w 263 -262 -242 1
w 264 263 243 1
w 264 263 -243 1
w 264 -263 243 1
w 264 -263 -243 0
w 265 264 244 0
w 265 264 -244 1
w 265 -264 244 1
w 265 -264 -244 0
w 266 265 245 1
w 266 265 -245 1
w 266 -265 245 0
w 266 -265 -245 1
w 267 266 246 1
w 267 266 -246 1
w 267 -266 246 1
w 267 -266 -246 0
w 268 267 247 1
w 268 267 -247 0
w 268 -267 247 0
w 268 -267 -247 0
w 269 268 248 1
w 269 268 -248 1
w 269 -268 248 1
w 269 -268 -248 0
w 270 269 249 0
w 270 269 -249 1
w 270 -269 249 1
w 270 -269 -249 1
w 271 270 250 1
w 271 270 -250 1
w 271 -270 250 0
w 271 -270 -250 1
w 272 271 251 0
w 272 271 -251 1
w 272 -271 251 0
w 272 -271 -251 0
w 273 272 252 0.502311
w 273 272 -252 0.0135976
w 273 -272 252 0.112528
w 273 -272 -252 0.388761
w 274 253 0
w 274 -253 1
w 275 274 254 0.24508
w 275 274 -254 0.534373
w 275 -274 254 0.446621
w 275 -274 -254 0.19907
w 276 275 255 0
w 276 275 -255 0
w 276 -275 255 1
w 276 -275 -255 0
w 277 276 256 0.967691
w 277 276 -256 0.0295887
w 277 -276 256 0.62832
w 277 -276 -256 0.580907
w 278 277 257 0
w 278 277 -257 1
w 278 -277 257 0
w 278 -277 -257 0
w 279 278 258 0
w 279 278 -258 1
w 279 -278 258 0
w 279 -278 -258 0
w 280 279 259 0.716283
w 280 279 -259 0.127474
w 280 -279 259 0.298289
w 280 -279 -259 0.0516836
w 281 280 260 1
w 281 280 -260 1
w 281 -280 260 0
w 281 -280 -260 1
w 282 281 261 1
w 282 281 -261 0
w 282 -281 261 0
w 282 -281 -261 1
w 283 282 262 0.260472
w 283 282 -262 0.449085
w 283 -282 262 0.545299
w 283 -282 -262 0.841379
w 284 283 263 0.0805654
w 284 283 -263 0.745751
w 284 -283 263 0.247243
w 284 -283 -263 0.0537073
w 285 284 264 0.315349
w 285 284 -264 0.460924
w 285 -284 264 0.608953
w 285 -284 -264 0.330295
w 286 285 265 1
w 286 285 -265 0
w 286 -285 265 1
w 286 -285 -265 1
w 287 286 266 0.839663
w 287 286 -266 0.673683
w 287 -286 266 0.885106
w 287 -286 -266 0.457205
w 288 287 267 0
w 288 287 -267 1
w 288 -287 267 1
w 288 -287 -267 0
w 289 288 268 1
w 289 288 -268 0
w 289 -288 268 1
w 289 -288 -268 1
w 290 289 269 0
w 290 289 -269 1
w 290 -289 269 0
w 290 -289 -269 1
w 291 290 270 0
w 291 290 -270 1
w 291 -290 270 1
w 291 -290 -270 1
w 292 291 271 0
w 292 291 -271 0
w 292 -291 271 1
w 292 -291 -271 1
w 293 292 272 1
w 293 292 -272 0
w 293 -292 272 0
w 293 -292 -272 0
w 294 293 273 1
w 294 293 -273 1
w 294 -293 273 0
w 294 -293 -273 0
w 295 274 1
w 295 -274 0
w 296 295 275 1
w 296 295 -275 0
w 296 -295 275 0
w 296 -295 -275 0
w 297 296 276 0
w 297 296 -276 1
w 297 -296 276 1
w 297 -296 -276 1
w 298 297 277 1
w 298 297 -277 1
w 298 -297 277 1
w 298 -297 -277 0
w 299 298 278 1
w 299 298 -278 0
w 299 -298 278 1
w 299 -298 -278 1
w 300 299 279 0.952012
w 300 299 -279 0.733208
w 300 -299 279 0.999363
w 300 -299 -279 0.428872
w 301 300 280 0.207597
w 301 300 -280 0.928056
w 301 -300 280 0.567982
w 301 -300 -280 0.929339
w 302 301 281 0.912463
w 302 301 -281 0.932658
w 302 -301 281 0.709854
w 302 -301 -281 0.567883
w 303 302 282 0
w 303 302 -282 1
w 303 -302 282 0
w 303 -302 -282 0
w 304 303 283 0
w 304 303 -283 1
w 304 -303 283 0
w 304 -303 -283 0
w 305 304 284 1
w 305 304 -284 1
w 305 -304 284 1
w 305 -304 -284 0
w 306 305 285 0
w 306 305 -285 1
w 306 -305 285 0
w 306 -305 -285 1
w 307 306 286 1
w 307 306 -286 0
w 307 -306 286 0
w 307 -306 -286 0
w 308 307 287 1
w 308 307 -287 0
w 308 -307 287 0
w 308 -307 -287 1
w 309 308 288 0
w 309 308 -288 0
w 309 -308 288 1
w 309 -308 -288 0
w 310 309 289 0.585434
w 310 309 -289 0.11336
w 310 -309 289 0.614753
w 310 -309 -289 0.574913
w 311 310 290 0
w 311 310 -290 1
w 311 -310 290 1
w 311 -310 -290 1
w 312 311 291 0.417956
w 312 311 -291 0.586919
w 312 -311 291 0.791854
w 312 -311 -291 0.586563
w 313 312 292 0.121214
w 313 312 -292 0.543861
w 313 -312 292 0.486538
w 313 -312 -292 0.37863
w 314 313 293 1
w 314 313 -293 0
w 314 -313 293 0
w 314 -313 -293 0
w 315 314 294 0
w 315 314 -294 0
w 315 -314 294 1
w 315 -314 -294 1
w 316 295 1
w 316 -295 0
w 317 316 296 1
w 317 316 -296 1
w 317 -316 296 0
w 317 -316 -296 1
w 318 317 297 1
w 318 317 -297 0
w 318 -317 297 1
w 318 -317 -297 1
w 319 318 298 0
w 319 318 -298 0
w 319 -318 298 1
w 319 -318 -298 1
w 320 319 299 0
w 320 319 -299 1
w 320 -319 299 1
w 320 -319 -299 1
w 321 320 300 0.442396
w 321 320 -300 0.468894
w 321 -320 300 0.408037
w 321 -320 -300 0.707884
w 322 321 301 1
w 322 321 -301 1
w 322 -321 301 1
w 322 -321 -301 0
w 323 322 302 0.720028
w 323 322 -302 0.0297619
w 323 -322 302 0.583778
w 323 -322 -302 0.561193
w 324 323 303 0
w 324 323 -303 1
w 324 -323 303 0
w 324 -323 -303 1
w 325 324 304 0
w 325 324 -304 1
w 325 -324 304 0
w 325 -324 -304 1
w 326 325 305 1
w 326 325 -305 1
w 326 -325 305 0
w 326 -325 -305 0
w 327 326 306 0.923283
w 327 326 -306 0.499793
w 327 -326 306 0.246031
w 327 -326 -306 0.33132
w 328 327 307 0
w 328 327 -307 0
w 328 -327 307 0
w 328 -327 -307 1
w 329 328 308 1
w 329 328 -308 0
w 329 -328 308 1
w 329 -328 -308 1
w 330 329 309 1
w 330 329 -309 1
w 330 -329 309 1
w 330 -329 -309 0
w 331 330 310 1
w 331 330 -310 0
w 331 -330 310 1
w 331 -330 -310 0
w 332 331 311 0
w 332 331 -311 0
w 332 -331 311 1
w 332 -331 -311 0
w 333 332 312 1
w 333 332 -312 0
w 333 -332 312 1
w 333 -332 -312 1
w 334 333 313 0
w 334 333 -313 1
w 334 -333 313 0
w 334 -333 -313 1
w 335 334 314 0
w 335 334 -314 1
w 335 -334 314 0
w 335 -334 -314 0
w 336 335 315 1
w 336 335 -315 1
w 336 -335 315 0
w 336 -335 -315 0
w 337 316 1
w 337 -316 0
w 338 337 317 0.658584
w 338 337 -317 0.274789
w 338 -337 317 0.171054
w 338 -337 -317 0.781283
w 339 338 318 1
w 339 338 -318 1
w 339 -338 318 0
w 339 -338 -318 0
w 340 339 319 0.953369
w 340 339 -319 0.0667005
w 340 -339 319 0.369688
w 340 -339 -319 0.0728745
w 341 340 320 0.937268
w 341 340 -320 0.801152
w 341 -340 320 0.443415
w 341 -340 -320 0.249752
w 342 341 321 1
w 342 341 -321 0
w 342 -341 321 0
w 342 -341 -321 1
w 343 342 322 1
w 343 342 -322 1
w 343 -342 322 1
w 343 -342 -322 0
w 344 343 323 0
w 344 343 -323 1
w 344 -343 323 1
w 344 -343 -323 1
w 345 344 324 1
w 345 344 -324 0
w 345 -344 324 1
w 345 -344 -324 0
w 346 345 325 0.522164
w 346 345 -325 0.690382
w 346 -345 325 0.0296848
w 346 -345 -325 0.891852
w 347 346 326 0.935863
w 347 346 -326 0.82912
w 347 -346 326 0.564408
w 347 -346 -326 0.379278
w 348 347 327 0
w 348 347 -327 0
w 348 -347 327 1
w 348 -347 -327 0
w 349 348 328 0
w 349 348 -328 0
w 349 -348 328 0
w 349 -348 -328 1
w 350 349 329 1
w 350 349 -329 1
w 350 -349 329 1
w 350 -349 -329 0
w 351 350 330 1
w 351 350 -330 1
w 351 -350 330 0
w 351 -350 -330 0
w 352 351 331 0.136052
w 352 351 -331 0.172727
w 352 -351 331 0.596554
w 352 -351 -331 0.165736
w 353 352 332 1
w 353 352 -332 1
w 353 -352 332 1
w 353 -352 -332 0
w 354 353 333 0
w 354 353 -333 0
w 354 -353 333 0
w 354 -353 -333 1
w 355 354 334 0
w 355 354 -334 1
w 355 -354 334 1
w 355 -354 -334 1
w 356 355 335 0
w 356 355 -335 1
w 356 -355 335 0
w 356 -355 -335 0
w 357 356 336 1
w 357 356 -336 0
w 357 -356 336 1
w 357 -356 -336 1
w 358 337 0
w 358 -337 1
w 359 358 338 1
w 359 358 -338 0
w 359 -358 338 1
w 359 -358 -338 0
w 360 359 339 0.175089
w 360 359 -339 0.313588
w 360 -359 339 0.252469
w 360 -359 -339 0.147661
w 361 360 340 0.374814
w 361 360 -340 0.0674406
w 361 -360 340 0.624089
w 361 -360 -340 0.856025
w 362 361 341 1
w 362 361 -341 0
w 362 -361 341 1
w 362 -361 -341 0
w 363 362 342 0
w 363 362 -342 0
w 363 -362 342 1
w 363 -362 -342 0
w 364 363 343 1
w 364 363 -343 1
w 364 -363 343 1
w 364 -363 -343 0
w 365 364 344 0
w 365 364 -344 0
w 365 -364 344 1
w 365 -364 -344 0
w 366 365 345 0
w 366 365 -345 1
w 366 -365 345 0
w 366 -365 -345 0
w 367 366 346 0
w 367 366 -346 1
w 367 -366 346 1
w 367 -366 -346 1
w 368 367 347 1
w 368 367 -347 1
w 368 -367 347 0
w 368 -367 -347 1
w 369 368 348 1
w 369 368 -348 0
w 369 -368 348 0
w 369 -368 -348 1
w 370 369 349 1
w 370 369 -349 0
w 370 -369 349 0
w 370 -369 -349 0
w 371 370 350 0.283328
w 371 370 -350 0.33577
w 371 -370 350 0.79267
w 371 -370 -350 0.566428
w 372 371 351 1
w 372 371 -351 0
w 372 -371 351 0
w 372 -371 -351 0
w 373 372 352 0
w 373 372 -352 1
w 373 -372 352 1
w 373 -372 -352 1
w 374 373 353 0
w 374 373 -353 0
w 374 -373 353 1
w 374 -373 -353 1
w 375 374 354 0.243727
w 375 374 -354 0.221771
w 375 -374 354 0.217745
w 375 -374 -354 0.147401
w 376 375 355 0
w 376 375 -355 0
w 376 -375 355 1
w 376 -375 -355 1
w 377 376 356 0
w 377 376 -356 1
w 377 -376 356 0
w 377 -376 -356 0
w 378 377 357 0
w 378 377 -357 0
w 378 -377 357 1
w 378 -377 -357 0
w 379 358 0
w 379 -358 1
w 380 379 359 0
w 380 379 -359 1
w 380 -379 359 1
w 380 -379 -359 1
w 381 380 360 1
w 381 380 -360 1
w 381 -380 360 1
w 381 -380 -360 0
w 382 381 361 0
w 382 381 -361 1
w 382 -381 361 1
w 382 -381 -361 1
w 383 382 362 1
w 383 382 -362 1
w 383 -382 362 1
w 383 -382 -362 0
w 384 383 363 1
w 384 383 -363 1
w 384 -383 363 1
w 384 -383 -363 0
w 385 384 364 1
w 385 384 -364 0
w 385 -384 364 0
w 385 -384 -364 1
w 386 385 365 0
w 386 385 -365 0
w 386 -385 365 0
w 386 -385 -365 1
w 387 386 366 1
w 387 386 -366 0
w 387 -386 366 0
w 387 -386 -366 1
w 388 387 367 1
w 388 387 -367 0
w 388 -387 367 0
w 388 -387 -367 1
w 389 388 368 1
w 389 388 -368 0
w 389 -388 368 0
w 389 -388 -368 0
w 390 389 369 1
w 390 389 -369 1
w 390 -389 369 0
w 390 -389 -369 0
w 391 390 370 0
w 391 390 -370 1
w 391 -390 370 1
w 391 -390 -370 0
w 392 391 371 0
w 392 391 -371 0
w 392 -391 371 0
w 392 -391 -371 1
w 393 392 372 1
w 393 392 -372 0
w 393 -392 372 0
w 393 -392 -372 1
w 394 393 373 0.750979
w 394 393 -373 0.409683
w 394 -393 373 0.361909
w 394 -393 -373 0.879929
w 395 394 374 0.0109699
w 395 394 -374 0.908877
w 395 -394 374 0.84876
w 395 -394 -374 0.373052
w 396 395 375 0
w 396 395 -375 1
w 396 -395 375 1
w 396 -395 -375 0
w 397 396 376 0
w 397 396 -376 0
w 397 -396 376 1
w 397 -396 -376 0
w 398 397 377 0
w 398 397 -377 1
w 398 -397 377 0
w 398 -397 -377 1
w 399 398 378 0.0984912
w 399 398 -378 0.445216
w 399 -398 378 0.496547
w 399 -398 -378 0.118599
w 400 379 1
w 400 -379 0
w 401 400 380 0
w 401 400 -380 1
w 401 -400 380 1
w 401 -400 -380 1
w 402 401 381 0
w 402 401 -381 0
w 402 -401 381 0
w 402 -401 -381 1
w 403 402 382 0
w 403 402 -382 1
w 403 -402 382 0
w 403 -402 -382 0
w 404 403 383 0
w 404 403 -383 0
w 404 -403 383 0
w 404 -403 -383 1
w 405 404 384 1
w 405 404 -384 0
w 405 -404 384 0
w 405 -404 -384 0
w 406 405 385 0
w 406 405 -385 0
w 406 -405 385 1
w 406 -405 -385 0
w 407 406 386 0
w 407 406 -386 1
w 407 -406 386 0
w 407 -406 -386 0
w 408 407 387 0
w 408 407 -387 1
w 408 -407 387 1
w 408 -407 -387 0
w 409 408 388 0
w 409 408 -388 1
w 409 -408 388 1
w 409 -408 -388 1
w 410 409 389 0.161821
w 410 409 -389 0.541283
w 410 -409 389 0.916084
w 410 -409 -389 0.33181
w 411 410 390 1
w 411 410 -390 0
w 411 -410 390 1
w 411 -410 -390 0
w 412 411 391 1
w 412 411 -391 0
w 412 -411 391 1
w 412 -411 -391 0
w 413 412 392 1
w 413 412 -392 1
w 413 -412 392 1
w 413 -412 -392 0
w 414 413 393 0
w 414 413 -393 0
w 414 -413 393 0
w 414 -413 -393 1
w 415 414 394 1
w 415 414 -394 1
w 415 -414 394 1
w 415 -414 -394 0
w 416 415 395 0
w 416 415 -395 0
w 416 -415 395 1
w 416 -415 -395 1
w 417 416 396 1
w 417 416 -396 0
w 417 -416 396 1
w 417 -416 -396 1
w 418 417 397 1
w 418 417 -397 0
w 418 -417 397 0
w 418 -417 -397 0
w 419 418 398 1
w 419 418 -398 0
w 419 -418 398 0
w 419 -418 -398 0
w 420 419 399 0.648486
w 420 419 -399 0.0199947
w 420 -419 399 0.428888
w 420 -419 -399 0.667961
w 421 400 1
w 421 -400 0
w 422 421 401 0
w 422 421 -401 0
w 422 -421 401 1
w 422 -421 -401 0
w 423 422 402 0.872916
w 423 422 -402 0.0583406
w 423 -422 402 0.388063
w 423 -422 -402 0.015379
w 424 423 403 1
w 424 423 -403 1
w 424 -423 403 0
w 424 -423 -403 1
w 425 424 404 0
w 425 424 -404 1
w 425 -424 404 0
w 425 -424 -404 1
w 426 425 405 0.19399
w 426 425 -405 0.389139
w 426 -425 405 0.758966
w 426 -425 -405 0.842477
w 427 426 406 1
w 427 426 -406 0
w 427 -426 406 0
w 427 -426 -406 0
w 428 427 407 0.98201
w 428 427 -407 0.247295
w 428 -427 407 0.153741
w 428 -427 -407 0.188885
w 429 428 408 0
w 429 428 -408 1
w 429 -428 408 1
w 429 -428 -408 0
w 430 429 409 1
w 430 429 -409 0
w 430 -429 409 0
w 430 -429 -409 1
w 431 430 410 1
w 431 430 -410 1
w 431 -430 410 0
w 431 -430 -410 1
w 432 431 411 0
w 432 431 -411 0
w 432 -431 411 0
w 432 -431 -411 1
w 433 432 412 0.0434918
w 433 432 -412 0.448052
w 433 -432 412 0.27165
w 433 -432 -412 0.152859
w 434 433 413 0.24893
w 434 433 -413 0.134869
w 434 -433 413 0.99882
w 434 -433 -413 0.402671
w 435 434 414 0
w 435 434 -414 1
w 435 -434 414 0
w 435 -434 -414 1
w 436 435 415 1
w 436 435 -415 0
w 436 -435 415 0
w 436 -435 -415 0
w 437 436 416 1
w 437 436 -416 1
w 437 -436 416 0
w 437 -436 -416 1
w 438 437 417 0
w 438 437 -417 1
w 438 -437 417 1
w 438 -437 -417 1
w 439 438 418 1
w 439 438 -418 0
w 439 -438 418 0
w 439 -438 -418 0
w 440 439 419 1
w 440 439 -419 0
w 440 -439 419 0
w 440 -439 -419 0
w 441 440 420 0.892816
w 441 440 -420 0.396182
w 441 -440 420 0.216874
w 441 -440 -420 0.0711731